(declare-var isEmpty Int)
(declare-var isEmpty1 Int)
(declare-var min Int)
(declare-var min1 Int)
(declare-var N Int)
(declare-var i Int)
(declare-var n Int)
(declare-var v Int)
(declare-var ret1 Int)
(declare-rel insert (Int Int Int Int Int))
(declare-rel inv (Int Int))
(declare-rel fail ())
(define-fun is_valid ((x Int)) Bool (or (= x 1) (= x 0)))
(define-fun MAX () Int 128)
(define-fun MIN () Int -129)

(rule (=> (and (= isEmpty 1) (= min MAX)) (inv min isEmpty)))
(rule (=> (and (inv min isEmpty) (is_valid isEmpty) (= N 4010) (>= i 0) (< i N) (and (=> (not (= i 4007)) (= n 2)) (=> (= i 4007) (= n 1))) (insert n min min1 isEmpty isEmpty1)) (inv min1 isEmpty1)))
(rule (=> (and (inv min isEmpty) (is_valid isEmpty) (and (=> (>= v min) (= ret1 1)) (=> (< v min) (= ret1 0))) (not (=> (= v 1) (= ret1 0)))) fail))

(query fail :print-certificate true)
